50
0 1 0.55 0.2
0 2 0.41 0.14
0 3 0.47 0.14
0 4 0.65 0.24
0 5 0.46 0.12
0 6 0.59 0.17
0 7 0.58 0.24
0 8 0.65 0.13
0 9 0.41 0.2
0 10 0.55 0.24
0 11 0.19 0.18
0 12 0.13 0.07
0 13 0.5 0.17
0 14 0.18 0.14
0 15 0.54 0.16
0 16 0.54 0.25
0 17 0.59 0.21
0 18 0.55 0.18
0 19 0.6 0.26
0 20 0.65 0.23
0 21 0.38 0.16
0 22 0.43 0.19
0 23 0.54 0.17
0 24 0.52 0.11
0 25 0.71 0.26
0 26 0.64 0.22
0 27 0.5 0.12
0 28 0.58 0.22
0 29 0.6 0.29
0 30 0.6 0.21
0 31 0.57 0.14
0 32 0.53 0.24
0 33 0.46 0.22
0 34 0.46 0.13
0 35 0.38 0.1
0 36 0.65 0.23
0 37 0.7 0.23
0 38 0.49 0.1
0 39 0.44 0.22
0 40 0.47 0.16
0 41 0.51 0.27
0 42 0.54 0.09
0 43 0.5 0.26
0 44 0.25 0.01
0 45 0.55 0.26
0 46 0.57 0.16
0 47 0.75 0.18
0 48 0.53 0.1
0 49 0.41 0.23
1 2 0.6 0.2
1 3 0.66 0.29
1 4 0.5 0.3
1 5 0.51 0.19
1 6 0.43 0.17
1 7 0.68 0.17
1 8 0.6 0.18
1 9 0.64 0.16
1 10 0.78 0.2
1 11 0.36 0.22
1 12 0.5 0.24
1 13 0.62 0.18
1 14 0.54 0.19
1 15 0.52 0.27
1 16 0.18 0.16
1 17 0.42 0.06
1 18 0.6 0.25
1 19 0.7 0.23
1 20 0.62 0.26
1 21 0.55 0.16
1 22 0.48 0.22
1 23 0.7 0.03
1 24 0.56 0.27
1 25 0.64 0.26
1 26 0.5 0.19
1 27 0.6 0.23
1 28 0.77 0.22
1 29 0.67 0.29
1 30 0.5 0.21
1 31 0.62 0.11
1 32 0.26 0.12
1 33 0.69 0.22
1 34 0.38 0.1
1 35 0.5 0.15
1 36 0.7 0.19
1 37 0.28 0.22
1 38 0.5 0.21
1 39 0.4 0.18
1 40 0.62 0.14
1 41 0.44 0.24
1 42 0.7 0.22
1 43 0.3 0.2
1 44 0.74 0.19
1 45 0.58 0.24
1 46 0.65 0.21
1 47 0.58 0.13
1 48 0.56 0.21
1 49 0.73 0.28
2 3 0.71 0.24
2 4 0.72 0.26
2 5 0.57 0.23
2 6 0.72 0.03
2 7 0.68 0.18
2 8 0.48 0.16
2 9 0.48 0.31
2 10 0.58 0.23
2 11 0.6 0.18
2 12 0.28 0.2
2 13 0.52 0.12
2 14 0.59 0.28
2 15 0.71 0.1
2 16 0.76 0.22
2 17 0.54 0.2
2 18 0.59 0.11
2 19 0.68 0.24
2 20 0.6 0.28
2 21 0.53 0.28
2 22 0.58 0.2
2 23 0.7 0.22
2 24 0.46 0.24
2 25 0.6 0.2
2 26 0.68 0.23
2 27 0.34 0.06
2 28 0.58 0.23
2 29 0.64 0.18
2 30 0.65 0.07
2 31 0.42 0.14
2 32 0.74 0.18
2 33 0.65 0.16
2 34 0.68 0.27
2 35 0.64 0.14
2 36 0.5 0.17
2 37 0.84 0.23
2 38 0.6 0.04
2 39 0.44 0.14
2 40 0.58 0.26
2 41 0.4 0.22
2 42 0.36 0.2
2 43 0.44 0.22
2 44 0.46 0.15
2 45 0.26 0.2
2 46 0.66 0.2
2 47 0.54 0.15
2 48 0.43 0.04
2 49 0.56 0.21
3 4 0.66 0.28
3 5 0.42 0.26
3 6 0.32 0.25
3 7 0.6 0.13
3 8 0.47 0.2
3 9 0.36 0.26
3 10 0.48 0.18
3 11 0.6 0.32
3 12 0.6 0.21
3 13 0.78 0.18
3 14 0.56 0.28
3 15 0.55 0.23
3 16 0.57 0.21
3 17 0.62 0.32
3 18 0.7 0.22
3 19 0.5 0.22
3 20 0.46 0.27
3 21 0.68 0.3
3 22 0.54 0.27
3 23 0.53 0.26
3 24 0.77 0.19
3 25 0.44 0.18
3 26 0.59 0.25
3 27 0.6 0.2
3 28 0.16 0.08
3 29 0.66 0.22
3 30 0.64 0.31
3 31 0.7 0.18
3 32 0.84 0.18
3 33 0.59 0.18
3 34 0.55 0.27
3 35 0.81 0.14
3 36 0.76 0.26
3 37 0.38 0.32
3 38 0.3 0.2
3 39 0.58 0.32
3 40 0.63 0.16
3 41 0.42 0.13
3 42 0.35 0.23
3 43 0.46 0.25
3 44 0.64 0.15
3 45 0.56 0.25
3 46 0.44 0.08
3 47 0.56 0.23
3 48 0.77 0.2
3 49 0.49 0.32
4 5 0.76 0.12
4 6 0.61 0.29
4 7 0.32 0.26
4 8 0.68 0.21
4 9 0.76 0.24
4 10 0.76 0.1
4 11 0.46 0.32
4 12 0.57 0.17
4 13 0.42 0.18
4 14 0.52 0.34
4 15 0.53 0.26
4 16 0.36 0.24
4 17 0.5 0.28
4 18 0.56 0.3
4 19 0.45 0.16
4 20 0.69 0.31
4 21 0.73 0.19
4 22 0.27 0.14
4 23 0.6 0.28
4 24 0.78 0.21
4 25 0.49 0.19
4 26 0.55 0.28
4 27 0.58 0.24
4 28 0.66 0.22
4 29 0.54 0.1
4 30 0.5 0.2
4 31 0.7 0.25
4 32 0.57 0.24
4 33 0.48 0.23
4 34 0.63 0.21
4 35 0.84 0.29
4 36 0.78 0.24
4 37 0.65 0.26
4 38 0.68 0.26
4 39 0.75 0.36
4 40 0.51 0.3
4 41 0.63 0.16
4 42 0.56 0.22
4 43 0.7 0.28
4 44 0.67 0.25
4 45 0.68 0.28
4 46 0.68 0.28
4 47 0.42 0.18
4 48 0.38 0.26
4 49 0.49 0.35
5 6 0.4 0.2
5 7 0.61 0.22
5 8 0.47 0.22
5 9 0.39 0.25
5 10 0.5 0.21
5 11 0.51 0.22
5 12 0.33 0.05
5 13 0.58 0.15
5 14 0.52 0.26
5 15 0.57 0.24
5 16 0.65 0.31
5 17 0.54 0.25
5 18 0.5 0.27
5 19 0.64 0.22
5 20 0.62 0.33
5 21 0.3 0.21
5 22 0.52 0.12
5 23 0.51 0.22
5 24 0.45 0.09
5 25 0.5 0.27
5 26 0.62 0.29
5 27 0.7 0.24
5 28 0.3 0.2
5 29 0.72 0.22
5 30 0.77 0.3
5 31 0.69 0.22
5 32 0.74 0.22
5 33 0.52 0.23
5 34 0.13 0.09
5 35 0.7 0.22
5 36 0.63 0.22
5 37 0.3 0.25
5 38 0.61 0.22
5 39 0.48 0.26
5 40 0.54 0.2
5 41 0.71 0.28
5 42 0.52 0.18
5 43 0.67 0.3
5 44 0.41 0.13
5 45 0.6 0.3
5 46 0.61 0.2
5 47 0.39 0.27
5 48 0.56 0.22
5 49 0.53 0.27
6 7 0.71 0.21
6 8 0.74 0.19
6 9 0.61 0.28
6 10 0.5 0.2
6 11 0.53 0.21
6 12 0.46 0.23
6 13 0.52 0.15
6 14 0.45 0.31
6 15 0.7 0.13
6 16 0.25 0.19
6 17 0.73 0.23
6 18 0.71 0.08
6 19 0.45 0.27
6 20 0.7 0.31
6 21 0.36 0.31
6 22 0.61 0.23
6 23 0.58 0.2
6 24 0.84 0.24
6 25 0.73 0.23
6 26 0.57 0.24
6 27 0.67 0.09
6 28 0.34 0.22
6 29 0.47 0.2
6 30 0.43 0.1
6 31 0.49 0.15
6 32 0.67 0.21
6 33 0.3 0.19
6 34 0.53 0.27
6 35 0.52 0.11
6 36 0.72 0.2
6 37 0.63 0.23
6 38 0.23 0.07
6 39 0.7 0.17
6 40 0.73 0.24
6 41 0.55 0.25
6 42 0.67 0.21
6 43 0.72 0.23
6 44 0.44 0.18
6 45 0.48 0.23
6 46 0.57 0.17
6 47 0.49 0.18
6 48 0.48 0.07
6 49 0.59 0.24
7 8 0.63 0.15
7 9 0.66 0.3
7 10 0.62 0.17
7 11 0.64 0.3
7 12 0.48 0.17
7 13 0.72 0.22
7 14 0.67 0.3
7 15 0.36 0.1
7 16 0.68 0.26
7 17 0.26 0.23
7 18 0.54 0.19
7 19 0.69 0.2
7 20 0.68 0.14
7 21 0.66 0.28
7 22 0.5 0.22
7 23 0.52 0.14
7 24 0.82 0.16
7 25 0.45 0.2
7 26 0.48 0.22
7 27 0.8 0.12
7 28 0.72 0.05
7 29 0.44 0.3
7 30 0.56 0.18
7 31 0.52 0.22
7 32 0.5 0.15
7 33 0.44 0.16
7 34 0.67 0.27
7 35 0.64 0.26
7 36 0.53 0.16
7 37 0.86 0.23
7 38 0.48 0.14
7 39 0.68 0.26
7 40 0.5 0.13
7 41 0.55 0.26
7 42 0.58 0.19
7 43 0.5 0.22
7 44 0.71 0.25
7 45 0.58 0.23
7 46 0.46 0.21
7 47 0.22 0.1
7 48 0.7 0.14
7 49 0.68 0.31
8 9 0.64 0.3
8 10 0.34 0.11
8 11 0.64 0.18
8 12 0.52 0.2
8 13 0.66 0.2
8 14 0.56 0.25
8 15 0.6 0.18
8 16 0.49 0.29
8 17 0.66 0.23
8 18 0.46 0.25
8 19 0.37 0.15
8 20 0.57 0.18
8 21 0.67 0.28
8 22 0.62 0.14
8 23 0.57 0.15
8 24 0.56 0.16
8 25 0.23 0.22
8 26 0.55 0.24
8 27 0.53 0.14
8 28 0.44 0.2
8 29 0.36 0.25
8 30 0.62 0.13
8 31 0.73 0.18
8 32 0.67 0.24
8 33 0.68 0.23
8 34 0.6 0.24
8 35 0.6 0.14
8 36 0.46 0.11
8 37 0.62 0.24
8 38 0.73 0.12
8 39 0.58 0.22
8 40 0.58 0.16
8 41 0.61 0.22
8 42 0.12 0.04
8 43 0.57 0.26
8 44 0.41 0.12
8 45 0.47 0.26
8 46 0.58 0.12
8 47 0.48 0.05
8 48 0.31 0.12
8 49 0.52 0.22
9 10 0.7 0.33
9 11 0.6 0.16
9 12 0.28 0.21
9 13 0.5 0.3
9 14 0.5 0.22
9 15 0.6 0.21
9 16 0.55 0.25
9 17 0.46 0.15
9 18 0.64 0.36
9 19 0.44 0.24
9 20 0.6 0.27
9 21 0.46 0.05
9 22 0.49 0.25
9 23 0.52 0.19
9 24 0.48 0.17
9 25 0.7 0.2
9 26 0.23 0.08
9 27 0.56 0.25
9 28 0.52 0.25
9 29 0.48 0.27
9 30 0.57 0.32
9 31 0.74 0.27
9 32 0.49 0.15
9 33 0.52 0.16
9 34 0.26 0.16
9 35 0.7 0.3
9 36 0.7 0.29
9 37 0.44 0.29
9 38 0.66 0.27
9 39 0.67 0.2
9 40 0.4 0.3
9 41 0.6 0.29
9 42 0.57 0.29
9 43 0.75 0.26
9 44 0.44 0.21
9 45 0.46 0.26
9 46 0.48 0.28
9 47 0.47 0.25
9 48 0.76 0.27
9 49 0.56 0.31
10 11 0.53 0.29
10 12 0.42 0.18
10 13 0.6 0.27
10 14 0.7 0.24
10 15 0.34 0.21
10 16 0.66 0.32
10 17 0.36 0.24
10 18 0.7 0.2
10 19 0.6 0.18
10 20 0.72 0.21
10 21 0.6 0.29
10 22 0.6 0.09
10 23 0.48 0.18
10 24 0.75 0.22
10 25 0.42 0.26
10 26 0.7 0.26
10 27 0.57 0.24
10 28 0.56 0.12
10 29 0.54 0.2
10 30 0.61 0.16
10 31 0.77 0.26
10 32 0.72 0.19
10 33 0.77 0.22
10 34 0.48 0.3
10 35 0.46 0.24
10 36 0.44 0.14
10 37 0.58 0.23
10 38 0.5 0.22
10 39 0.64 0.26
10 40 0.76 0.2
10 41 0.76 0.26
10 42 0.46 0.15
10 43 0.69 0.29
10 44 0.67 0.23
10 45 0.62 0.26
10 46 0.51 0.23
10 47 0.66 0.08
10 48 0.38 0.22
10 49 0.51 0.33
11 12 0.32 0.25
11 13 0.58 0.28
11 14 0.37 0.28
11 15 0.7 0.2
11 16 0.54 0.28
11 17 0.4 0.22
11 18 0.45 0.28
11 19 0.57 0.22
11 20 0.64 0.35
11 21 0.57 0.21
11 22 0.52 0.3
11 23 0.73 0.25
11 24 0.48 0.25
11 25 0.74 0.18
11 26 0.64 0.24
11 27 0.68 0.24
11 28 0.64 0.28
11 29 0.6 0.22
11 30 0.58 0.25
11 31 0.67 0.26
11 32 0.34 0.31
11 33 0.63 0.14
11 34 0.38 0.26
11 35 0.51 0.22
11 36 0.59 0.28
11 37 0.62 0.26
11 38 0.3 0.22
11 39 0.63 0.04
11 40 0.66 0.2
11 41 0.38 0.21
11 42 0.73 0.22
11 43 0.66 0.3
11 44 0.44 0.19
11 45 0.36 0.1
11 46 0.71 0.28
11 47 0.56 0.22
11 48 0.34 0.22
11 49 0.37 0.19
12 13 0.38 0.1
12 14 0.31 0.21
12 15 0.56 0.2
12 16 0.67 0.29
12 17 0.7 0.26
12 18 0.5 0.22
12 19 0.72 0.27
12 20 0.59 0.28
12 21 0.4 0.16
12 22 0.3 0.17
12 23 0.67 0.24
12 24 0.53 0.04
12 25 0.75 0.28
12 26 0.51 0.29
12 27 0.37 0.19
12 28 0.54 0.15
12 29 0.47 0.22
12 30 0.48 0.27
12 31 0.7 0.17
12 32 0.49 0.25
12 33 0.59 0.24
12 34 0.46 0.14
12 35 0.51 0.17
12 36 0.52 0.17
12 37 0.63 0.3
12 38 0.62 0.17
12 39 0.57 0.29
12 40 0.34 0.15
12 41 0.44 0.33
12 42 0.64 0.16
12 43 0.63 0.25
12 44 0.38 0.08
12 45 0.54 0.25
12 46 0.44 0.15
12 47 0.7 0.23
12 48 0.66 0.17
12 49 0.28 0.26
13 14 0.58 0.24
13 15 0.58 0.14
13 16 0.72 0.24
13 17 0.58 0.24
13 18 0.65 0.21
13 19 0.62 0.22
13 20 0.53 0.28
13 21 0.65 0.26
13 22 0.46 0.18
13 23 0.64 0.15
13 24 0.52 0.14
13 25 0.53 0.18
13 26 0.5 0.27
13 27 0.74 0.1
13 28 0.62 0.25
13 29 0.63 0.28
13 30 0.66 0.19
13 31 0.36 0.07
13 32 0.42 0.22
13 33 0.52 0.14
13 34 0.71 0.24
13 35 0.58 0.11
13 36 0.5 0.21
13 37 0.58 0.2
13 38 0.61 0.08
13 39 0.76 0.26
13 40 0.69 0.25
13 41 0.4 0.3
13 42 0.54 0.21
13 43 0.32 0.2
13 44 0.25 0.18
13 45 0.26 0.18
13 46 0.52 0.1
13 47 0.5 0.24
13 48 0.48 0.08
13 49 0.62 0.25
14 15 0.36 0.2
14 16 0.7 0.3
14 17 0.66 0.25
14 18 0.37 0.32
14 19 0.42 0.22
14 20 0.47 0.35
14 21 0.56 0.24
14 22 0.61 0.3
14 23 0.52 0.16
14 24 0.7 0.25
14 25 0.79 0.18
14 26 0.73 0.3
14 27 0.67 0.24
14 28 0.4 0.26
14 29 0.6 0.28
14 30 0.7 0.32
14 31 0.65 0.24
14 32 0.71 0.31
14 33 0.59 0.14
14 34 0.48 0.27
14 35 0.32 0.22
14 36 0.72 0.31
14 37 0.69 0.28
14 38 0.67 0.24
14 39 0.57 0.32
14 40 0.38 0.18
14 41 0.58 0.38
14 42 0.62 0.23
14 43 0.56 0.28
14 44 0.33 0.15
14 45 0.72 0.28
14 46 0.5 0.28
14 47 0.58 0.26
14 48 0.65 0.24
14 49 0.59 0.37
15 16 0.7 0.24
15 17 0.3 0.22
15 18 0.52 0.15
15 19 0.64 0.14
15 20 0.6 0.24
15 21 0.73 0.26
15 22 0.26 0.12
15 23 0.78 0.24
15 24 0.62 0.16
15 25 0.5 0.1
15 26 0.43 0.13
15 27 0.53 0.04
15 28 0.48 0.15
15 29 0.24 0.22
15 30 0.46 0.17
15 31 0.44 0.16
15 32 0.48 0.2
15 33 0.76 0.06
15 34 0.51 0.2
15 35 0.65 0.2
15 36 0.67 0.15
15 37 0.58 0.13
15 38 0.7 0.06
15 39 0.72 0.24
15 40 0.64 0.2
15 41 0.6 0.25
15 42 0.71 0.22
15 43 0.5 0.2
15 44 0.54 0.17
15 45 0.62 0.3
15 46 0.6 0.24
15 47 0.44 0.2
15 48 0.54 0.06
15 49 0.45 0.23
16 17 0.6 0.22
16 18 0.46 0.27
16 19 0.66 0.2
16 20 0.58 0.12
16 21 0.61 0.2
16 22 0.52 0.32
16 23 0.72 0.14
16 24 0.68 0.27
16 25 0.56 0.32
16 26 0.32 0.23
16 27 0.42 0.2
16 28 0.59 0.22
16 29 0.7 0.34
16 30 0.66 0.29
16 31 0.44 0.22
16 32 0.44 0.22
16 33 0.55 0.28
16 34 0.56 0.26
16 35 0.62 0.26
16 36 0.52 0.27
16 37 0.46 0.36
16 38 0.48 0.18
16 39 0.58 0.24
16 40 0.54 0.14
16 41 0.38 0.08
16 42 0.52 0.32
16 43 0.47 0.04
16 44 0.69 0.24
16 45 0.5 0.2
16 46 0.58 0.29
16 47 0.7 0.24
16 48 0.38 0.18
16 49 0.7 0.35
17 18 0.79 0.29
17 19 0.62 0.28
17 20 0.6 0.26
17 21 0.43 0.1
17 22 0.56 0.28
17 23 0.53 0.09
17 24 0.62 0.22
17 25 0.71 0.27
17 26 0.52 0.23
17 27 0.55 0.18
17 28 0.46 0.28
17 29 0.54 0.24
17 30 0.66 0.2
17 31 0.42 0.17
17 32 0.49 0.18
17 33 0.56 0.28
17 34 0.41 0.16
17 35 0.5 0.18
17 36 0.56 0.14
17 37 0.64 0.28
17 38 0.7 0.16
17 39 0.6 0.18
17 40 0.62 0.2
17 41 0.46 0.3
17 42 0.54 0.27
17 43 0.68 0.18
17 44 0.65 0.2
17 45 0.32 0.27
17 46 0.68 0.24
17 47 0.48 0.18
17 48 0.74 0.16
17 49 0.55 0.33
18 19 0.5 0.29
18 20 0.72 0.33
18 21 0.36 0.34
18 22 0.54 0.27
18 23 0.6 0.28
18 24 0.54 0.25
18 25 0.58 0.25
18 26 0.48 0.28
18 27 0.48 0.11
18 28 0.7 0.14
18 29 0.76 0.28
18 30 0.64 0.18
18 31 0.44 0.23
18 32 0.68 0.24
18 33 0.56 0.21
18 34 0.63 0.31
18 35 0.62 0.19
18 36 0.69 0.22
18 37 0.32 0.15
18 38 0.66 0.13
18 39 0.56 0.24
18 40 0.35 0.16
18 41 0.68 0.33
18 42 0.58 0.24
18 43 0.77 0.26
18 44 0.7 0.19
18 45 0.54 0.26
18 46 0.63 0.25
18 47 0.74 0.26
18 48 0.46 0.13
18 49 0.78 0.3
19 20 0.59 0.23
19 21 0.66 0.24
19 22 0.56 0.24
19 23 0.81 0.2
19 24 0.56 0.3
19 25 0.6 0.12
19 26 0.45 0.27
19 27 0.37 0.18
19 28 0.44 0.23
19 29 0.57 0.26
19 30 0.76 0.18
19 31 0.77 0.2
19 32 0.72 0.26
19 33 0.75 0.08
19 34 0.7 0.22
19 35 0.48 0.16
19 36 0.7 0.16
19 37 0.58 0.24
19 38 0.68 0.2
19 39 0.66 0.26
19 40 0.69 0.22
19 41 0.6 0.28
19 42 0.49 0.19
19 43 0.4 0.16
19 44 0.52 0.27
19 45 0.46 0.32
19 46 0.75 0.22
19 47 0.54 0.1
19 48 0.4 0.2
19 49 0.67 0.34
20 21 0.36 0.22
20 22 0.54 0.3
20 23 0.7 0.23
20 24 0.84 0.3
20 25 0.66 0.32
20 26 0.52 0.35
20 27 0.56 0.24
20 28 0.4 0.19
20 29 0.61 0.41
20 30 0.78 0.21
20 31 0.7 0.24
20 32 0.78 0.29
20 33 0.75 0.3
20 34 0.75 0.36
20 35 0.71 0.2
20 36 0.68 0.19
20 37 0.51 0.34
20 38 0.76 0.26
20 39 0.48 0.31
20 40 0.54 0.18
20 41 0.5 0.2
20 42 0.45 0.22
20 43 0.32 0.08
20 44 0.5 0.24
20 45 0.44 0.28
20 46 0.66 0.26
20 47 0.58 0.13
20 48 0.81 0.26
20 49 0.54 0.3
21 22 0.48 0.3
21 23 0.34 0.19
21 24 0.69 0.12
21 25 0.8 0.25
21 26 0.68 0.13
21 27 0.4 0.26
21 28 0.6 0.23
21 29 0.74 0.29
21 30 0.68 0.3
21 31 0.58 0.25
21 32 0.44 0.2
21 33 0.52 0.21
21 34 0.43 0.21
21 35 0.5 0.26
21 36 0.54 0.24
21 37 0.6 0.34
21 38 0.59 0.24
21 39 0.69 0.25
21 40 0.58 0.3
21 41 0.58 0.28
21 42 0.69 0.25
21 43 0.52 0.24
21 44 0.4 0.17
21 45 0.44 0.31
21 46 0.67 0.23
21 47 0.58 0.28
21 48 0.58 0.24
21 49 0.68 0.36
22 23 0.62 0.25
22 24 0.69 0.21
22 25 0.68 0.17
22 26 0.6 0.17
22 27 0.59 0.16
22 28 0.39 0.2
22 29 0.5 0.24
22 30 0.54 0.23
22 31 0.56 0.24
22 32 0.3 0.1
22 33 0.5 0.16
22 34 0.65 0.21
22 35 0.64 0.2
22 36 0.51 0.2
22 37 0.5 0.14
22 38 0.8 0.18
22 39 0.48 0.32
22 40 0.55 0.28
22 41 0.56 0.24
22 42 0.5 0.1
22 43 0.68 0.32
22 44 0.66 0.18
22 45 0.52 0.35
22 46 0.56 0.26
22 47 0.54 0.17
22 48 0.61 0.18
22 49 0.58 0.26
23 24 0.68 0.24
23 25 0.48 0.29
23 26 0.7 0.22
23 27 0.71 0.2
23 28 0.48 0.19
23 29 0.73 0.32
23 30 0.64 0.18
23 31 0.56 0.08
23 32 0.62 0.15
23 33 0.71 0.25
23 34 0.64 0.13
23 35 0.48 0.12
23 36 0.64 0.16
23 37 0.81 0.25
23 38 0.54 0.18
23 39 0.42 0.21
23 40 0.66 0.17
23 41 0.56 0.22
23 42 0.54 0.19
23 43 0.64 0.18
23 44 0.74 0.16
23 45 0.48 0.27
23 46 0.82 0.18
23 47 0.72 0.1
23 48 0.62 0.18
23 49 0.7 0.31
24 25 0.79 0.26
24 26 0.69 0.25
24 27 0.8 0.2
24 28 0.61 0.11
24 29 0.58 0.26
24 30 0.63 0.29
24 31 0.62 0.21
24 32 0.39 0.21
24 33 0.83 0.22
24 34 0.43 0.18
24 35 0.5 0.17
24 36 0.76 0.21
24 37 0.75 0.28
24 38 0.67 0.21
24 39 0.76 0.29
24 40 0.72 0.19
24 41 0.84 0.3
24 42 0.64 0.2
24 43 0.78 0.29
24 44 0.64 0.12
24 45 0.72 0.29
24 46 0.56 0.11
24 47 0.66 0.21
24 48 0.75 0.21
24 49 0.61 0.3
25 26 0.58 0.21
25 27 0.62 0.14
25 28 0.6 0.24
25 29 0.59 0.29
25 30 0.56 0.14
25 31 0.54 0.25
25 32 0.68 0.14
25 33 0.73 0.04
25 34 0.63 0.18
25 35 0.64 0.28
25 36 0.62 0.13
25 37 0.5 0.23
25 38 0.5 0.16
25 39 0.81 0.22
25 40 0.76 0.18
25 41 0.74 0.28
25 42 0.35 0.26
25 43 0.34 0.28
25 44 0.46 0.26
25 45 0.7 0.28
25 46 0.8 0.22
25 47 0.5 0.19
25 48 0.54 0.16
25 49 0.54 0.28
26 27 0.46 0.17
26 28 0.75 0.17
26 29 0.67 0.35
26 30 0.34 0.24
26 31 0.54 0.24
26 32 0.3 0.07
26 33 0.56 0.19
26 34 0.49 0.24
26 35 0.84 0.28
26 36 0.62 0.28
26 37 0.67 0.21
26 38 0.58 0.19
26 39 0.66 0.28
26 40 0.51 0.25
26 41 0.51 0.21
26 42 0.67 0.27
26 43 0.56 0.27
26 44 0.44 0.21
26 45 0.53 0.2
26 46 0.49 0.33
26 47 0.7 0.29
26 48 0.66 0.19
26 49 0.77 0.23
27 28 0.48 0.17
27 29 0.53 0.24
27 30 0.61 0.13
27 31 0.6 0.12
27 32 0.64 0.16
27 33 0.53 0.1
27 34 0.7 0.24
27 35 0.5 0.16
27 36 0.44 0.11
27 37 0.6 0.17
27 38 0.6 0.02
27 39 0.29 0.2
27 40 0.56 0.24
27 41 0.62 0.28
27 42 0.65 0.18
27 43 0.75 0.16
27 44 0.75 0.13
27 45 0.48 0.26
27 46 0.38 0.2
27 47 0.67 0.17
27 48 0.46 0.02
27 49 0.62 0.19
28 29 0.5 0.3
28 30 0.6 0.23
28 31 0.72 0.26
28 32 0.69 0.1
28 33 0.64 0.21
28 34 0.43 0.29
28 35 0.72 0.22
28 36 0.6 0.21
28 37 0.54 0.24
28 38 0.46 0.19
28 39 0.44 0.24
28 40 0.47 0.08
28 41 0.58 0.21
28 42 0.49 0.24
28 43 0.62 0.18
28 44 0.56 0.23
28 45 0.72 0.18
28 46 0.6 0.16
28 47 0.55 0.15
28 48 0.61 0.19
28 49 0.6 0.26
29 30 0.66 0.25
29 31 0.68 0.29
29 32 0.72 0.3
29 33 0.6 0.28
29 34 0.74 0.31
29 35 0.41 0.25
29 36 0.72 0.34
29 37 0.52 0.16
29 38 0.7 0.22
29 39 0.64 0.26
29 40 0.53 0.37
29 41 0.47 0.26
29 42 0.48 0.29
29 43 0.37 0.36
29 44 0.6 0.3
29 45 0.48 0.32
29 46 0.8 0.3
29 47 0.65 0.28
29 48 0.52 0.22
29 49 0.5 0.32
30 31 0.67 0.21
30 32 0.24 0.2
30 33 0.69 0.18
30 34 0.76 0.31
30 35 0.64 0.21
30 36 0.53 0.1
30 37 0.52 0.3
30 38 0.66 0.11
30 39 0.32 0.21
30 40 0.59 0.29
30 41 0.58 0.29
30 42 0.74 0.17
30 43 0.46 0.29
30 44 0.58 0.22
30 45 0.44 0.27
30 46 0.44 0.25
30 47 0.74 0.08
30 48 0.6 0.11
30 49 0.55 0.28
31 32 0.69 0.23
31 33 0.53 0.21
31 34 0.57 0.21
31 35 0.66 0.04
31 36 0.55 0.23
31 37 0.42 0.27
31 38 0.5 0.1
31 39 0.52 0.22
31 40 0.78 0.25
31 41 0.45 0.3
31 42 0.61 0.14
31 43 0.58 0.26
31 44 0.32 0.15
31 45 0.31 0.25
31 46 0.26 0.1
31 47 0.3 0.18
31 48 0.64 0.1
31 49 0.48 0.26
32 33 0.52 0.18
32 34 0.64 0.22
32 35 0.66 0.26
32 36 0.72 0.27
32 37 0.5 0.14
32 38 0.62 0.14
32 39 0.56 0.3
32 40 0.73 0.18
32 41 0.52 0.14
32 42 0.79 0.2
32 43 0.56 0.26
32 44 0.63 0.25
32 45 0.48 0.26
32 46 0.58 0.26
32 47 0.72 0.25
32 48 0.36 0.14
32 49 0.6 0.16
33 34 0.48 0.14
33 35 0.66 0.24
33 36 0.49 0.17
33 37 0.67 0.19
33 38 0.53 0.12
33 39 0.67 0.18
33 40 0.69 0.14
33 41 0.25 0.24
33 42 0.56 0.26
33 43 0.72 0.24
33 44 0.27 0.22
33 45 0.39 0.24
33 46 0.27 0.18
33 47 0.62 0.18
33 48 0.59 0.12
33 49 0.58 0.29
34 35 0.68 0.23
34 36 0.5 0.29
34 37 0.43 0.32
34 38 0.48 0.23
34 39 0.61 0.28
34 40 0.56 0.24
34 41 0.58 0.34
34 42 0.5 0.2
34 43 0.67 0.3
34 44 0.54 0.12
34 45 0.56 0.32
34 46 0.48 0.29
34 47 0.52 0.23
34 48 0.69 0.23
34 49 0.45 0.18
35 36 0.48 0.22
35 37 0.75 0.31
35 38 0.66 0.14
35 39 0.32 0.18
35 40 0.48 0.26
35 41 0.48 0.27
35 42 0.52 0.1
35 43 0.68 0.28
35 44 0.63 0.11
35 45 0.62 0.29
35 46 0.4 0.06
35 47 0.42 0.16
35 48 0.8 0.14
35 49 0.79 0.24
36 37 0.46 0.28
36 38 0.58 0.13
36 39 0.54 0.24
36 40 0.34 0.27
36 41 0.38 0.33
36 42 0.58 0.15
36 43 0.52 0.23
36 44 0.42 0.23
36 45 0.24 0.22
36 46 0.48 0.23
36 47 0.42 0.06
36 48 0.64 0.13
36 49 0.49 0.3
37 38 0.68 0.19
37 39 0.43 0.26
37 40 0.62 0.31
37 41 0.72 0.28
37 42 0.5 0.24
37 43 0.58 0.33
37 44 0.71 0.22
37 45 0.66 0.36
37 46 0.59 0.3
37 47 0.66 0.29
37 48 0.49 0.19
37 49 0.64 0.3
38 39 0.64 0.18
38 40 0.51 0.22
38 41 0.38 0.26
38 42 0.63 0.16
38 43 0.54 0.18
38 44 0.56 0.11
38 45 0.52 0.24
38 46 0.74 0.18
38 47 0.26 0.16
38 48 0.5 0.0
38 49 0.67 0.17
39 40 0.27 0.16
39 41 0.52 0.25
39 42 0.7 0.22
39 43 0.69 0.26
39 44 0.69 0.23
39 45 0.62 0.14
39 46 0.62 0.24
39 47 0.46 0.18
39 48 0.48 0.18
39 49 0.69 0.23
40 41 0.44 0.22
40 42 0.7 0.2
40 43 0.42 0.1
40 44 0.71 0.17
40 45 0.52 0.1
40 46 0.74 0.24
40 47 0.64 0.21
40 48 0.68 0.22
40 49 0.6 0.34
41 42 0.73 0.26
41 43 0.62 0.12
41 44 0.48 0.28
41 45 0.14 0.12
41 46 0.52 0.21
41 47 0.6 0.27
41 48 0.48 0.26
41 49 0.4 0.3
42 43 0.69 0.3
42 44 0.29 0.08
42 45 0.59 0.3
42 46 0.58 0.16
42 47 0.53 0.09
42 48 0.43 0.16
42 49 0.4 0.26
43 44 0.54 0.26
43 45 0.5 0.2
43 46 0.53 0.3
43 47 0.28 0.21
43 48 0.8 0.18
43 49 0.56 0.35
44 45 0.5 0.27
44 46 0.54 0.17
44 47 0.62 0.17
44 48 0.32 0.11
44 49 0.66 0.22
45 46 0.4 0.28
45 47 0.61 0.28
45 48 0.56 0.24
45 49 0.54 0.29
46 47 0.49 0.17
46 48 0.58 0.18
46 49 0.53 0.24
47 48 0.74 0.16
47 49 0.46 0.27
48 49 0.51 0.17
